178
174
372
168
326
146
157
186
189
447
542
251
266
369
139
639
246
295
296
840
273
201
339
121
401
296
213
220
347
126
343
265
154
318
143
365
405
195
324
365
682
194
97
224
89
211
229
309
244
143
115
153
398
175
162
213
174
242
306
419
266
148
456
287
198
317
125
319
536
481
253
129
304
153
235
293
161
189
338
317
152
208
296
508
152
271
289
250
709
320
95
492
326
123
322
392
230
289
496
187
